0 0 1 0605 0800 1230 1520 1800 1830 2000 2400
2 1 1 0701 0900 1200 1300 1200 1500 1800 1900
6 0 1 1250 1500 1600 1830 2140 2230 0000 0100
7 1 1 1350 1445 1620 1720 1820 0100 2021 2230

1 0 2 2050 4050 0600 1200
3 1 2 0800 0900 1525 1630
4 0 3 0300 0504 0950 1100
5 1 3 1100 1102 1305 1800
8 1 2 1620 1700 1800 1900